Optimal - objective value 12.00000000
      0 r_0                         1                       1
     15 r_15                        1                       1
     22 r_22                        1                       1
     24 r_24                        1                       1
     37 r_37                        1                       1
     41 r_41                        1                       1
     52 b_4                         1                       1
     61 b_13                        1                       1
     66 b_18                        1                       1
     74 b_26                        1                       1
     82 b_34                        1                       1
     93 b_45                        1                       1
